27	3	3
6	3	4	81	0	40	
0	0	0	0	7	1	1	4	1	10	25	2	3	4	5	6	7	8	9	10	11	12	13	14	15	16	17	18	19	20	21	22	23	24	25	26
2	2	0	2	6	1	7	5	10	2	5	27	10	15	26	19
5	3	1	2	6	8	3	4	1	3	4	27	13	18	14
3	3	1	1	8	8	6	9	10	10	3	27	26	25
2	3	0	1	5	8	2	5	6	4	6	27	21	14	15	8	11
4	0	1	2	8	3	5	9	7	5	4	27	9	7	17
5	2	1	0	8	2	6	5	7	5	1	27
5	0	0	2	7	2	3	9	6	4	8	27	22	14	21	19	13	20	12
3	1	0	1	2	3	1	7	1	1	4	27	24	25	11
1	1	1	2	6	6	8	8	1	4	2	27	16
2	0	1	0	1	8	6	5	6	2	1	27
1	0	1	1	10	4	3	6	9	10	2	27	15
4	2	1	1	10	5	2	3	4	7	2	27	22
4	3	1	2	7	5	9	7	1	10	1	27
5	3	1	1	8	7	6	5	4	6	2	27	16
4	0	0	1	8	5	4	4	10	10	1	27
5	0	0	1	5	9	3	8	5	1	3	27	21	23
1	0	1	1	7	4	6	8	7	9	2	27	21
4	2	1	1	5	3	3	3	10	4	3	27	22	21
5	0	1	1	3	7	1	8	2	5	3	27	26	24
2	2	1	0	4	9	9	7	3	8	2	27	22
3	0	0	1	6	7	7	9	5	1	1	27
1	1	0	2	9	1	5	5	9	2	1	27
3	2	0	2	3	3	4	6	6	4	1	27
2	0	0	2	10	8	1	10	5	2	1	27
5	0	0	2	4	8	1	3	5	3	1	27
0	0	0	0	10	10	9	7	9	4	0
